(set-option :auto-config false)
(set-option :model true)

(set-option :smt.mbqi false)

(define-sort Str () Int)
(declare-fun strLen (Str) Int)
(declare-fun subString (Str Int Int) Str)
(declare-fun concatString (Str Str) Str)
(define-sort Elt () Int)
(define-sort LSet () (Array Elt Bool))
(define-fun smt_set_emp () LSet ((as const LSet) false))
(define-fun smt_set_sng ((x Elt)) LSet (store ((as const LSet) false) x true))
(define-fun smt_set_mem ((x Elt) (s LSet)) Bool (select s x))
(define-fun smt_set_add ((s LSet) (x Elt)) LSet (store s x true))
(define-fun smt_set_cup ((s1 LSet) (s2 LSet)) LSet ((_ map or) s1 s2))
(define-fun smt_set_cap ((s1 LSet) (s2 LSet)) LSet ((_ map and) s1 s2))
(define-fun smt_set_com ((s LSet)) LSet ((_ map not) s))
(define-fun smt_set_dif ((s1 LSet) (s2 LSet)) LSet (smt_set_cap s1 (smt_set_com s2)))
(define-fun smt_set_sub ((s1 LSet) (s2 LSet)) Bool (= smt_set_emp (smt_set_dif s1 s2)))
(define-sort Map () (Array Elt Elt))
(define-fun smt_map_sel ((m Map) (k Elt)) Elt (select m k))
(define-fun smt_map_sto ((m Map) (k Elt) (v Elt)) Map (store m k v))
(define-fun smt_map_cup ((m1 Map) (m2 Map)) Map ((_ map (+ (Elt Elt) Elt)) m1 m2))
(define-fun smt_map_prj ((s LSet) (m Map)) Map ((_ map (ite (Bool Elt Elt) Elt)) s m ((as const (Array Elt Elt)) 0)))
(define-fun smt_map_to_set ((m Map)) LSet ((_ map (> (Elt Elt) Bool)) m ((as const (Array Elt Elt)) 0)))
(define-fun smt_map_max ((m1 Map) (m2 Map)) Map (lambda ((i Int)) (ite (> (select m1 i) (select m2 i)) (select m1 i) (select m2 i))))
(define-fun smt_map_min ((m1 Map) (m2 Map)) Map (lambda ((i Int)) (ite (< (select m1 i) (select m2 i)) (select m1 i) (select m2 i))))
(define-fun smt_map_shift ((n Int) (m Map)) Map (lambda ((i Int)) (select m (- i n))))
(define-fun smt_map_def ((v Elt)) Map ((as const (Map)) v))
(define-fun bool_to_int ((b Bool)) Int (ite b 1 0))
(define-fun Z3_OP_MUL ((x Int) (y Int)) Int (* x y))
(define-fun Z3_OP_DIV ((x Int) (y Int)) Int (div x y))
(declare-datatypes ((Unit 0)) ((par () (Unit))))
(declare-datatypes ((Pair 2)) ((par (T0 T1) ((Pair (fst T0) (snd T1))))))
(declare-fun a6 () Int)
(declare-fun lq_karg$36$nnf_arg$35$$35$k4$35$$35$0$35$$35$k4 () Int)
(declare-fun lq_karg$36$nnf_arg$35$$35$k0$35$$35$0$35$$35$k0 () Int)
(declare-fun fix$36$_$35$8$35$$35$13 () Unit)
(declare-fun fix$36$_$35$6 () Unit)
(declare-fun fix$36$_$35$6$35$$35$8 () Unit)
(declare-fun fix$36$_$35$8$35$$35$14 () Unit)
(declare-fun fix$36$_$35$1 () Unit)
(declare-fun lq_karg$36$nnf_arg$35$$35$k7$35$$35$2$35$$35$k7 () Int)
(declare-fun nnf_arg$35$$35$k0$35$$35$1 () Int)
(declare-fun a1 () Int)
(declare-fun lq_karg$36$nnf_arg$35$$35$k3$35$$35$1$35$$35$k3 () Int)
(declare-fun a4 () Int)
(declare-fun lq_karg$36$nnf_arg$35$$35$k7$35$$35$1$35$$35$k7 () Int)
(declare-fun fix$36$_$35$8 () Unit)
(declare-fun fix$36$_$35$2$35$$35$5 () Unit)
(declare-fun lq_karg$36$nnf_arg$35$$35$k7$35$$35$0$35$$35$k7 () Int)
(declare-fun fix$36$_$35$3 () Unit)
(declare-fun nnf_arg$35$$35$k7$35$$35$1 () Int)
(declare-fun lq_karg$36$nnf_arg$35$$35$k3$35$$35$0$35$$35$k3 () Int)
(declare-fun a8 () Int)
(declare-fun fix$36$_$35$8$35$$35$9 () Unit)
(declare-fun a2 () Int)
(declare-fun fix$36$_$35$10$35$$35$15 () Unit)
(declare-fun lq_karg$36$nnf_arg$35$$35$k6$35$$35$1$35$$35$k6 () Int)
(declare-fun nnf_arg$35$$35$k6$35$$35$1 () Int)
(declare-fun fix$36$_$35$5 () Unit)
(declare-fun fix$36$_$35$9$35$$35$11 () Unit)
(declare-fun fix$36$_$35$11 () Unit)
(declare-fun fix$36$_$35$8$35$$35$10 () Unit)
(declare-fun nnf_arg$35$$35$k7$35$$35$2 () Int)
(declare-fun cast_as () Int)
(declare-fun cast_as_int () Int)
(declare-fun lq_karg$36$nnf_arg$35$$35$k2$35$$35$0$35$$35$k2 () Int)
(declare-fun lq_karg$36$nnf_arg$35$$35$k6$35$$35$0$35$$35$k6 () Int)
(declare-fun a0 () Int)
(declare-fun fix$36$_$35$11$35$$35$16 () Unit)
(declare-fun a7 () Int)
(declare-fun nnf_arg$35$$35$k5$35$$35$1 () Int)
(declare-fun a10 () Int)
(declare-fun nnf_arg$35$$35$k3$35$$35$1 () Int)
(declare-fun fix$36$_$35$8$35$$35$12 () Unit)
(declare-fun fix$36$_$35$7 () Unit)
(declare-fun lq_karg$36$nnf_arg$35$$35$k1$35$$35$1$35$$35$k1 () Int)
(declare-fun lq_karg$36$nnf_arg$35$$35$k5$35$$35$1$35$$35$k5 () Int)
(declare-fun fix$36$_$35$$35$4 () Unit)
(declare-fun fix$36$_$35$3$35$$35$6 () Unit)
(declare-fun fix$36$_$35$2 () Unit)
(declare-fun nnf_arg$35$$35$k4$35$$35$1 () Int)
(declare-fun lq_karg$36$nnf_arg$35$$35$k1$35$$35$0$35$$35$k1 () Int)
(declare-fun a5 () Int)
(declare-fun lq_karg$36$nnf_arg$35$$35$k5$35$$35$0$35$$35$k5 () Int)
(declare-fun fix$36$_$35$9 () Unit)
(declare-fun fix$36$_$35$$35$2 () Unit)
(declare-fun fix$36$_$35$10 () Unit)
(declare-fun fix$36$_$35$4 () Unit)
(declare-fun a9 () Int)
(declare-fun a1$35$$35$1 () Int)
(declare-fun lq_karg$36$nnf_arg$35$$35$k4$35$$35$1$35$$35$k4 () Int)
(declare-fun lq_karg$36$nnf_arg$35$$35$k0$35$$35$1$35$$35$k0 () Int)
(declare-fun fix$36$_$35$1$35$$35$3 () Unit)
(declare-fun fix$36$_ () Unit)
(declare-fun fix$36$_$35$5$35$$35$7 () Unit)
(declare-fun a3 () Int)
(declare-fun nnf_arg$35$$35$k1$35$$35$1 () Int)
(declare-fun apply$35$$35$16 (Int (_ BitVec 32)) Bool)
(declare-fun apply$35$$35$1 (Int Int) Bool)
(declare-fun apply$35$$35$3 (Int Int) (_ BitVec 32))
(declare-fun apply$35$$35$18 (Int (_ BitVec 32)) (_ BitVec 32))
(declare-fun apply$35$$35$24 (Int Unit) Unit)
(declare-fun apply$35$$35$17 (Int (_ BitVec 32)) Str)
(declare-fun apply$35$$35$11 (Int Str) Bool)
(declare-fun apply$35$$35$5 (Int Bool) Int)
(declare-fun apply$35$$35$12 (Int Str) Str)
(declare-fun apply$35$$35$4 (Int Int) Unit)
(declare-fun apply$35$$35$20 (Int Unit) Int)
(declare-fun apply$35$$35$13 (Int Str) (_ BitVec 32))
(declare-fun apply$35$$35$15 (Int (_ BitVec 32)) Int)
(declare-fun apply$35$$35$9 (Int Bool) Unit)
(declare-fun apply$35$$35$22 (Int Unit) Str)
(declare-fun apply$35$$35$10 (Int Str) Int)
(declare-fun apply$35$$35$0 (Int Int) Int)
(declare-fun apply$35$$35$7 (Int Bool) Str)
(declare-fun apply$35$$35$8 (Int Bool) (_ BitVec 32))
(declare-fun apply$35$$35$21 (Int Unit) Bool)
(declare-fun apply$35$$35$23 (Int Unit) (_ BitVec 32))
(declare-fun apply$35$$35$19 (Int (_ BitVec 32)) Unit)
(declare-fun apply$35$$35$2 (Int Int) Str)
(declare-fun apply$35$$35$6 (Int Bool) Bool)
(declare-fun apply$35$$35$14 (Int Str) Unit)
(declare-fun coerce$35$$35$16 ((_ BitVec 32)) Bool)
(declare-fun coerce$35$$35$1 (Int) Bool)
(declare-fun coerce$35$$35$3 (Int) (_ BitVec 32))
(declare-fun coerce$35$$35$18 ((_ BitVec 32)) (_ BitVec 32))
(declare-fun coerce$35$$35$24 (Unit) Unit)
(declare-fun coerce$35$$35$17 ((_ BitVec 32)) Str)
(declare-fun coerce$35$$35$11 (Str) Bool)
(declare-fun coerce$35$$35$5 (Bool) Int)
(declare-fun coerce$35$$35$12 (Str) Str)
(declare-fun coerce$35$$35$4 (Int) Unit)
(declare-fun coerce$35$$35$20 (Unit) Int)
(declare-fun coerce$35$$35$13 (Str) (_ BitVec 32))
(declare-fun coerce$35$$35$15 ((_ BitVec 32)) Int)
(declare-fun coerce$35$$35$9 (Bool) Unit)
(declare-fun coerce$35$$35$22 (Unit) Str)
(declare-fun coerce$35$$35$10 (Str) Int)
(declare-fun coerce$35$$35$0 (Int) Int)
(declare-fun coerce$35$$35$7 (Bool) Str)
(declare-fun coerce$35$$35$8 (Bool) (_ BitVec 32))
(declare-fun coerce$35$$35$21 (Unit) Bool)
(declare-fun coerce$35$$35$23 (Unit) (_ BitVec 32))
(declare-fun coerce$35$$35$19 ((_ BitVec 32)) Unit)
(declare-fun coerce$35$$35$2 (Int) Str)
(declare-fun coerce$35$$35$6 (Bool) Bool)
(declare-fun coerce$35$$35$14 (Str) Unit)
(declare-fun smt_lambda$35$$35$16 ((_ BitVec 32) Bool) Int)
(declare-fun smt_lambda$35$$35$1 (Int Bool) Int)
(declare-fun smt_lambda$35$$35$3 (Int (_ BitVec 32)) Int)
(declare-fun smt_lambda$35$$35$18 ((_ BitVec 32) (_ BitVec 32)) Int)
(declare-fun smt_lambda$35$$35$24 (Unit Unit) Int)
(declare-fun smt_lambda$35$$35$17 ((_ BitVec 32) Str) Int)
(declare-fun smt_lambda$35$$35$11 (Str Bool) Int)
(declare-fun smt_lambda$35$$35$5 (Bool Int) Int)
(declare-fun smt_lambda$35$$35$12 (Str Str) Int)
(declare-fun smt_lambda$35$$35$4 (Int Unit) Int)
(declare-fun smt_lambda$35$$35$20 (Unit Int) Int)
(declare-fun smt_lambda$35$$35$13 (Str (_ BitVec 32)) Int)
(declare-fun smt_lambda$35$$35$15 ((_ BitVec 32) Int) Int)
(declare-fun smt_lambda$35$$35$9 (Bool Unit) Int)
(declare-fun smt_lambda$35$$35$22 (Unit Str) Int)
(declare-fun smt_lambda$35$$35$10 (Str Int) Int)
(declare-fun smt_lambda$35$$35$0 (Int Int) Int)
(declare-fun smt_lambda$35$$35$7 (Bool Str) Int)
(declare-fun smt_lambda$35$$35$8 (Bool (_ BitVec 32)) Int)
(declare-fun smt_lambda$35$$35$21 (Unit Bool) Int)
(declare-fun smt_lambda$35$$35$23 (Unit (_ BitVec 32)) Int)
(declare-fun smt_lambda$35$$35$19 ((_ BitVec 32) Unit) Int)
(declare-fun smt_lambda$35$$35$2 (Int Str) Int)
(declare-fun smt_lambda$35$$35$6 (Bool Bool) Int)
(declare-fun smt_lambda$35$$35$14 (Str Unit) Int)
(declare-fun lam_arg$35$$35$1$35$$35$5 () Bool)
(declare-fun lam_arg$35$$35$2$35$$35$5 () Bool)
(declare-fun lam_arg$35$$35$3$35$$35$5 () Bool)
(declare-fun lam_arg$35$$35$4$35$$35$5 () Bool)
(declare-fun lam_arg$35$$35$5$35$$35$5 () Bool)
(declare-fun lam_arg$35$$35$6$35$$35$5 () Bool)
(declare-fun lam_arg$35$$35$7$35$$35$5 () Bool)
(declare-fun lam_arg$35$$35$1$35$$35$20 () Unit)
(declare-fun lam_arg$35$$35$2$35$$35$20 () Unit)
(declare-fun lam_arg$35$$35$3$35$$35$20 () Unit)
(declare-fun lam_arg$35$$35$4$35$$35$20 () Unit)
(declare-fun lam_arg$35$$35$5$35$$35$20 () Unit)
(declare-fun lam_arg$35$$35$6$35$$35$20 () Unit)
(declare-fun lam_arg$35$$35$7$35$$35$20 () Unit)
(declare-fun lam_arg$35$$35$1$35$$35$15 () (_ BitVec 32))
(declare-fun lam_arg$35$$35$2$35$$35$15 () (_ BitVec 32))
(declare-fun lam_arg$35$$35$3$35$$35$15 () (_ BitVec 32))
(declare-fun lam_arg$35$$35$4$35$$35$15 () (_ BitVec 32))
(declare-fun lam_arg$35$$35$5$35$$35$15 () (_ BitVec 32))
(declare-fun lam_arg$35$$35$6$35$$35$15 () (_ BitVec 32))
(declare-fun lam_arg$35$$35$7$35$$35$15 () (_ BitVec 32))
(declare-fun lam_arg$35$$35$1$35$$35$10 () Str)
(declare-fun lam_arg$35$$35$2$35$$35$10 () Str)
(declare-fun lam_arg$35$$35$3$35$$35$10 () Str)
(declare-fun lam_arg$35$$35$4$35$$35$10 () Str)
(declare-fun lam_arg$35$$35$5$35$$35$10 () Str)
(declare-fun lam_arg$35$$35$6$35$$35$10 () Str)
(declare-fun lam_arg$35$$35$7$35$$35$10 () Str)
(declare-fun lam_arg$35$$35$1$35$$35$0 () Int)
(declare-fun lam_arg$35$$35$2$35$$35$0 () Int)
(declare-fun lam_arg$35$$35$3$35$$35$0 () Int)
(declare-fun lam_arg$35$$35$4$35$$35$0 () Int)
(declare-fun lam_arg$35$$35$5$35$$35$0 () Int)
(declare-fun lam_arg$35$$35$6$35$$35$0 () Int)
(declare-fun lam_arg$35$$35$7$35$$35$0 () Int)
(push 1)
(define-fun b$36$$35$$35$32 () Bool (>= a0 0))
(define-fun b$36$$35$$35$34 () Bool (>= a0 0))
(define-fun b$36$$35$$35$39 () Bool (>= a7 0))
(define-fun b$36$$35$$35$40 () Bool (>= a7 0))
(define-fun b$36$$35$$35$9 () Bool (>= a0 0))
(define-fun b$36$$35$$35$10 () Bool (= a1 0))
(define-fun b$36$$35$$35$42 () Bool (>= a7 0))
(define-fun b$36$$35$$35$43 () Bool (>= a7 0))
(define-fun b$36$$35$$35$44 () Bool (>= a7 0))
(define-fun b$36$$35$$35$24 () Bool (>= a7 0))
(define-fun b$36$$35$$35$31 () Bool (= a1$35$$35$1 0))
(push 1)
(assert (and true b$36$$35$$35$34 b$36$$35$$35$9))
(push 1)
(assert (not (> a0 0)))
(check-sat)
(pop 1)
(push 1)
(assert (not (< a0 0)))
(check-sat)
(pop 1)
(push 1)
(assert (not (<= a0 0)))
(check-sat)
(pop 1)
(push 1)
(assert (not (= a0 0)))
(check-sat)
(pop 1)
(push 1)
(assert (not (>= a0 0)))
(check-sat)
(pop 1)
; SMT Says: Sat
; SMT Says: Sat
; SMT Says: Sat
; SMT Says: Sat
; SMT Says: Unsat
(pop 1)
(push 1)
(assert (and (and (exists ((lq_karg$36$nnf_arg$35$$35$k1$35$$35$1$35$$35$k1 Int) (lq_karg$36$nnf_arg$35$$35$k1$35$$35$0$35$$35$k1 Int)) (and (= lq_karg$36$nnf_arg$35$$35$k1$35$$35$0$35$$35$k1 a3) (= lq_karg$36$nnf_arg$35$$35$k1$35$$35$1$35$$35$k1 a0) (exists ((fix$36$_$35$1$35$$35$3 Unit) (a2 Int) (fix$36$_$35$1 Unit)) (and (or (exists ((lq_karg$36$nnf_arg$35$$35$k0$35$$35$0$35$$35$k0 Int) (lq_karg$36$nnf_arg$35$$35$k0$35$$35$1$35$$35$k0 Int)) (and (= lq_karg$36$nnf_arg$35$$35$k0$35$$35$0$35$$35$k0 a2) (= lq_karg$36$nnf_arg$35$$35$k0$35$$35$1$35$$35$k0 a0) (exists ((fix$36$_$35$$35$2 Unit)) (and (>= a0 0) (= lq_karg$36$nnf_arg$35$$35$k0$35$$35$0$35$$35$k0 a0) (= lq_karg$36$nnf_arg$35$$35$k0$35$$35$1$35$$35$k0 a0))))) (exists ((lq_karg$36$nnf_arg$35$$35$k0$35$$35$0$35$$35$k0 Int) (lq_karg$36$nnf_arg$35$$35$k0$35$$35$1$35$$35$k0 Int)) (and (= lq_karg$36$nnf_arg$35$$35$k0$35$$35$0$35$$35$k0 a2) (= lq_karg$36$nnf_arg$35$$35$k0$35$$35$1$35$$35$k0 a0) (exists ((a1 Int) (a1$35$$35$1 Int)) (and (= a1 0) (= a1$35$$35$1 0) (= lq_karg$36$nnf_arg$35$$35$k0$35$$35$0$35$$35$k0 a1$35$$35$1) (= lq_karg$36$nnf_arg$35$$35$k0$35$$35$1$35$$35$k0 a0)))))) (or (exists ((lq_karg$36$nnf_arg$35$$35$k0$35$$35$0$35$$35$k0 Int) (lq_karg$36$nnf_arg$35$$35$k0$35$$35$1$35$$35$k0 Int)) (and (= lq_karg$36$nnf_arg$35$$35$k0$35$$35$0$35$$35$k0 a2) (= lq_karg$36$nnf_arg$35$$35$k0$35$$35$1$35$$35$k0 a0) (exists ((fix$36$_$35$$35$2 Unit)) (and (>= a0 0) (= lq_karg$36$nnf_arg$35$$35$k0$35$$35$0$35$$35$k0 a0) (= lq_karg$36$nnf_arg$35$$35$k0$35$$35$1$35$$35$k0 a0))))) (exists ((lq_karg$36$nnf_arg$35$$35$k0$35$$35$0$35$$35$k0 Int) (lq_karg$36$nnf_arg$35$$35$k0$35$$35$1$35$$35$k0 Int)) (and (= lq_karg$36$nnf_arg$35$$35$k0$35$$35$0$35$$35$k0 a2) (= lq_karg$36$nnf_arg$35$$35$k0$35$$35$1$35$$35$k0 a0) (exists ((a1 Int) (a1$35$$35$1 Int)) (and (= a1 0) (= a1$35$$35$1 0) (= lq_karg$36$nnf_arg$35$$35$k0$35$$35$0$35$$35$k0 a1$35$$35$1) (= lq_karg$36$nnf_arg$35$$35$k0$35$$35$1$35$$35$k0 a0)))))) (= lq_karg$36$nnf_arg$35$$35$k1$35$$35$0$35$$35$k1 a2) (= lq_karg$36$nnf_arg$35$$35$k1$35$$35$1$35$$35$k1 a0))))) (exists ((lq_karg$36$nnf_arg$35$$35$k1$35$$35$1$35$$35$k1 Int) (lq_karg$36$nnf_arg$35$$35$k1$35$$35$0$35$$35$k1 Int)) (and (= lq_karg$36$nnf_arg$35$$35$k1$35$$35$0$35$$35$k1 a3) (= lq_karg$36$nnf_arg$35$$35$k1$35$$35$1$35$$35$k1 a0) (exists ((fix$36$_$35$1$35$$35$3 Unit) (a2 Int) (fix$36$_$35$1 Unit)) (and (or (exists ((lq_karg$36$nnf_arg$35$$35$k0$35$$35$0$35$$35$k0 Int) (lq_karg$36$nnf_arg$35$$35$k0$35$$35$1$35$$35$k0 Int)) (and (= lq_karg$36$nnf_arg$35$$35$k0$35$$35$0$35$$35$k0 a2) (= lq_karg$36$nnf_arg$35$$35$k0$35$$35$1$35$$35$k0 a0) (exists ((fix$36$_$35$$35$2 Unit)) (and (>= a0 0) (= lq_karg$36$nnf_arg$35$$35$k0$35$$35$0$35$$35$k0 a0) (= lq_karg$36$nnf_arg$35$$35$k0$35$$35$1$35$$35$k0 a0))))) (exists ((lq_karg$36$nnf_arg$35$$35$k0$35$$35$0$35$$35$k0 Int) (lq_karg$36$nnf_arg$35$$35$k0$35$$35$1$35$$35$k0 Int)) (and (= lq_karg$36$nnf_arg$35$$35$k0$35$$35$0$35$$35$k0 a2) (= lq_karg$36$nnf_arg$35$$35$k0$35$$35$1$35$$35$k0 a0) (exists ((a1 Int) (a1$35$$35$1 Int)) (and (= a1 0) (= a1$35$$35$1 0) (= lq_karg$36$nnf_arg$35$$35$k0$35$$35$0$35$$35$k0 a1$35$$35$1) (= lq_karg$36$nnf_arg$35$$35$k0$35$$35$1$35$$35$k0 a0)))))) (or (exists ((lq_karg$36$nnf_arg$35$$35$k0$35$$35$0$35$$35$k0 Int) (lq_karg$36$nnf_arg$35$$35$k0$35$$35$1$35$$35$k0 Int)) (and (= lq_karg$36$nnf_arg$35$$35$k0$35$$35$0$35$$35$k0 a2) (= lq_karg$36$nnf_arg$35$$35$k0$35$$35$1$35$$35$k0 a0) (exists ((fix$36$_$35$$35$2 Unit)) (and (>= a0 0) (= lq_karg$36$nnf_arg$35$$35$k0$35$$35$0$35$$35$k0 a0) (= lq_karg$36$nnf_arg$35$$35$k0$35$$35$1$35$$35$k0 a0))))) (exists ((lq_karg$36$nnf_arg$35$$35$k0$35$$35$0$35$$35$k0 Int) (lq_karg$36$nnf_arg$35$$35$k0$35$$35$1$35$$35$k0 Int)) (and (= lq_karg$36$nnf_arg$35$$35$k0$35$$35$0$35$$35$k0 a2) (= lq_karg$36$nnf_arg$35$$35$k0$35$$35$1$35$$35$k0 a0) (exists ((a1 Int) (a1$35$$35$1 Int)) (and (= a1 0) (= a1$35$$35$1 0) (= lq_karg$36$nnf_arg$35$$35$k0$35$$35$0$35$$35$k0 a1$35$$35$1) (= lq_karg$36$nnf_arg$35$$35$k0$35$$35$1$35$$35$k0 a0)))))) (= lq_karg$36$nnf_arg$35$$35$k1$35$$35$0$35$$35$k1 a2) (= lq_karg$36$nnf_arg$35$$35$k1$35$$35$1$35$$35$k1 a0)))))) b$36$$35$$35$9))
(push 1)
(assert (not (<= a3 0)))
(check-sat)
(pop 1)
(push 1)
(assert (not (< a3 a0)))
(check-sat)
(pop 1)
(push 1)
(assert (not (> a3 0)))
(check-sat)
(pop 1)
(push 1)
(assert (not (<= a3 a0)))
(check-sat)
(pop 1)
(push 1)
(assert (not (< a3 0)))
(check-sat)
(pop 1)
(push 1)
(assert (not (= a3 a0)))
(check-sat)
(pop 1)
(push 1)
(assert (not (>= a3 0)))
(check-sat)
(pop 1)
(push 1)
(assert (not (= a3 0)))
(check-sat)
(pop 1)
(push 1)
(assert (not (> a3 a0)))
(check-sat)
(pop 1)
(push 1)
(assert (not (>= a3 a0)))
(check-sat)
(pop 1)
(push 1)
(assert (not (<= a3 (- a0 1))))
(check-sat)
(pop 1)
; SMT Says: Sat
; SMT Says: Sat
; SMT Says: Sat
; SMT Says: Unsat
; SMT Says: Sat
; SMT Says: Sat
; SMT Says: Unsat
; SMT Says: Sat
; SMT Says: Sat
; SMT Says: Sat
; SMT Says: Sat
(pop 1)
(push 1)
(assert (and false b$36$$35$$35$9))
(push 1)
(assert (not (>= a4 0)))
(check-sat)
(pop 1)
(push 1)
(assert (not (= a4 0)))
(check-sat)
(pop 1)
(push 1)
(assert (not (< a4 a0)))
(check-sat)
(pop 1)
(push 1)
(assert (not (<= a4 a0)))
(check-sat)
(pop 1)
(push 1)
(assert (not (<= a4 0)))
(check-sat)
(pop 1)
(push 1)
(assert (not (= a4 a0)))
(check-sat)
(pop 1)
(push 1)
(assert (not (> a4 a0)))
(check-sat)
(pop 1)
(push 1)
(assert (not (> a4 0)))
(check-sat)
(pop 1)
(push 1)
(assert (not (< a4 0)))
(check-sat)
(pop 1)
(push 1)
(assert (not (>= a4 a0)))
(check-sat)
(pop 1)
(push 1)
(assert (not (<= a4 (- a0 1))))
(check-sat)
(pop 1)
; SMT Says: Unsat
; SMT Says: Unsat
; SMT Says: Unsat
; SMT Says: Unsat
; SMT Says: Unsat
; SMT Says: Unsat
; SMT Says: Unsat
; SMT Says: Unsat
; SMT Says: Unsat
; SMT Says: Unsat
; SMT Says: Unsat
(pop 1)
(push 1)
(assert (and (and (>= a5 0) (<= a5 a0) (>= a0 0) (>= a5 0) (<= a5 a0)) b$36$$35$$35$9))
(push 1)
(assert (not (> a5 0)))
(check-sat)
(pop 1)
(push 1)
(assert (not (< a5 0)))
(check-sat)
(pop 1)
(push 1)
(assert (not (< a5 a0)))
(check-sat)
(pop 1)
(push 1)
(assert (not (<= a5 0)))
(check-sat)
(pop 1)
(push 1)
(assert (not (<= a5 a0)))
(check-sat)
(pop 1)
(push 1)
(assert (not (<= a5 (- a0 1))))
(check-sat)
(pop 1)
(push 1)
(assert (not (= a5 0)))
(check-sat)
(pop 1)
(push 1)
(assert (not (= a5 a0)))
(check-sat)
(pop 1)
(push 1)
(assert (not (> a5 a0)))
(check-sat)
(pop 1)
(push 1)
(assert (not (>= a5 a0)))
(check-sat)
(pop 1)
(push 1)
(assert (not (>= a5 0)))
(check-sat)
(pop 1)
; SMT Says: Sat
; SMT Says: Sat
; SMT Says: Sat
; SMT Says: Sat
; SMT Says: Unsat
; SMT Says: Sat
; SMT Says: Sat
; SMT Says: Sat
; SMT Says: Sat
; SMT Says: Sat
; SMT Says: Unsat
(pop 1)
(push 1)
(assert (and (and (>= a0 0) (>= a7 0) (<= a7 a0)) b$36$$35$$35$9 b$36$$35$$35$43 b$36$$35$$35$24))
(push 1)
(assert (not (>= a7 0)))
(check-sat)
(pop 1)
(push 1)
(assert (not (<= a7 a0)))
(check-sat)
(pop 1)
; SMT Says: Unsat
; SMT Says: Unsat
(pop 1)
(push 1)
(assert (and (and (>= a0 0) (<= a7 a0) (>= a7 0)) b$36$$35$$35$9 b$36$$35$$35$44 b$36$$35$$35$24))
(push 1)
(assert (not (>= a0 0)))
(check-sat)
(pop 1)
; SMT Says: Unsat
(pop 1)
(push 1)
(assert (and (and (<= a9 a0) (>= a9 0) (>= a0 0) (<= a7 a0) (>= a7 0) (<= a9 a0) (>= a9 0)) b$36$$35$$35$9 b$36$$35$$35$24))
(push 1)
(assert (not (>= a9 0)))
(check-sat)
(pop 1)
(push 1)
(assert (not (<= a9 a0)))
(check-sat)
(pop 1)
; SMT Says: Unsat
; SMT Says: Unsat
(pop 1)
(push 1)
(assert (and (and (or (exists ((lq_karg$36$nnf_arg$35$$35$k7$35$$35$2$35$$35$k7 Int) (lq_karg$36$nnf_arg$35$$35$k7$35$$35$1$35$$35$k7 Int) (lq_karg$36$nnf_arg$35$$35$k7$35$$35$0$35$$35$k7 Int)) (and (= lq_karg$36$nnf_arg$35$$35$k7$35$$35$0$35$$35$k7 a10) (= lq_karg$36$nnf_arg$35$$35$k7$35$$35$1$35$$35$k7 a0) (= lq_karg$36$nnf_arg$35$$35$k7$35$$35$2$35$$35$k7 a7) (exists ((fix$36$_$35$8$35$$35$12 Unit)) (and (>= a7 0) (= lq_karg$36$nnf_arg$35$$35$k7$35$$35$0$35$$35$k7 a0) (= lq_karg$36$nnf_arg$35$$35$k7$35$$35$1$35$$35$k7 a0) (= lq_karg$36$nnf_arg$35$$35$k7$35$$35$2$35$$35$k7 a7))))) (exists ((lq_karg$36$nnf_arg$35$$35$k7$35$$35$2$35$$35$k7 Int) (lq_karg$36$nnf_arg$35$$35$k7$35$$35$1$35$$35$k7 Int) (lq_karg$36$nnf_arg$35$$35$k7$35$$35$0$35$$35$k7 Int)) (and (= lq_karg$36$nnf_arg$35$$35$k7$35$$35$0$35$$35$k7 a10) (= lq_karg$36$nnf_arg$35$$35$k7$35$$35$1$35$$35$k7 a0) (= lq_karg$36$nnf_arg$35$$35$k7$35$$35$2$35$$35$k7 a7) (exists ((fix$36$_$35$9$35$$35$11 Unit) (a8 Int) (fix$36$_$35$9 Unit)) (and (<= a8 (- a0 1)) (>= a8 a0) (< a8 0) (> a8 0) (> a8 a0) (= a8 a0) (<= a8 0) (<= a8 a0) (< a8 a0) (= a8 0) (>= a8 0) (<= a8 (- a0 1)) (>= a8 a0) (< a8 0) (> a8 0) (> a8 a0) (= a8 a0) (<= a8 0) (<= a8 a0) (< a8 a0) (= a8 0) (>= a8 0) (= lq_karg$36$nnf_arg$35$$35$k7$35$$35$0$35$$35$k7 a8) (= lq_karg$36$nnf_arg$35$$35$k7$35$$35$1$35$$35$k7 a0) (= lq_karg$36$nnf_arg$35$$35$k7$35$$35$2$35$$35$k7 a7)))))) (>= a0 0) (<= a7 a0) (>= a7 0) (or (exists ((lq_karg$36$nnf_arg$35$$35$k7$35$$35$2$35$$35$k7 Int) (lq_karg$36$nnf_arg$35$$35$k7$35$$35$1$35$$35$k7 Int) (lq_karg$36$nnf_arg$35$$35$k7$35$$35$0$35$$35$k7 Int)) (and (= lq_karg$36$nnf_arg$35$$35$k7$35$$35$0$35$$35$k7 a10) (= lq_karg$36$nnf_arg$35$$35$k7$35$$35$1$35$$35$k7 a0) (= lq_karg$36$nnf_arg$35$$35$k7$35$$35$2$35$$35$k7 a7) (exists ((fix$36$_$35$8$35$$35$12 Unit)) (and (>= a7 0) (= lq_karg$36$nnf_arg$35$$35$k7$35$$35$0$35$$35$k7 a0) (= lq_karg$36$nnf_arg$35$$35$k7$35$$35$1$35$$35$k7 a0) (= lq_karg$36$nnf_arg$35$$35$k7$35$$35$2$35$$35$k7 a7))))) (exists ((lq_karg$36$nnf_arg$35$$35$k7$35$$35$2$35$$35$k7 Int) (lq_karg$36$nnf_arg$35$$35$k7$35$$35$1$35$$35$k7 Int) (lq_karg$36$nnf_arg$35$$35$k7$35$$35$0$35$$35$k7 Int)) (and (= lq_karg$36$nnf_arg$35$$35$k7$35$$35$0$35$$35$k7 a10) (= lq_karg$36$nnf_arg$35$$35$k7$35$$35$1$35$$35$k7 a0) (= lq_karg$36$nnf_arg$35$$35$k7$35$$35$2$35$$35$k7 a7) (exists ((fix$36$_$35$9$35$$35$11 Unit) (a8 Int) (fix$36$_$35$9 Unit)) (and (<= a8 (- a0 1)) (>= a8 a0) (< a8 0) (> a8 0) (> a8 a0) (= a8 a0) (<= a8 0) (<= a8 a0) (< a8 a0) (= a8 0) (>= a8 0) (<= a8 (- a0 1)) (>= a8 a0) (< a8 0) (> a8 0) (> a8 a0) (= a8 a0) (<= a8 0) (<= a8 a0) (< a8 a0) (= a8 0) (>= a8 0) (= lq_karg$36$nnf_arg$35$$35$k7$35$$35$0$35$$35$k7 a8) (= lq_karg$36$nnf_arg$35$$35$k7$35$$35$1$35$$35$k7 a0) (= lq_karg$36$nnf_arg$35$$35$k7$35$$35$2$35$$35$k7 a7))))))) b$36$$35$$35$9 b$36$$35$$35$24))
(push 1)
(assert (not (<= a10 (- a0 1))))
(check-sat)
(pop 1)
(push 1)
(assert (not (>= a10 a0)))
(check-sat)
(pop 1)
(push 1)
(assert (not (< a10 0)))
(check-sat)
(pop 1)
(push 1)
(assert (not (> a10 0)))
(check-sat)
(pop 1)
(push 1)
(assert (not (> a10 a0)))
(check-sat)
(pop 1)
(push 1)
(assert (not (= a10 a0)))
(check-sat)
(pop 1)
(push 1)
(assert (not (<= a10 0)))
(check-sat)
(pop 1)
(push 1)
(assert (not (<= a10 a0)))
(check-sat)
(pop 1)
(push 1)
(assert (not (< a10 a0)))
(check-sat)
(pop 1)
(push 1)
(assert (not (= a10 0)))
(check-sat)
(pop 1)
(push 1)
(assert (not (>= a10 0)))
(check-sat)
(pop 1)
; SMT Says: Sat
; SMT Says: Unsat
; SMT Says: Sat
; SMT Says: Sat
; SMT Says: Sat
; SMT Says: Unsat
; SMT Says: Sat
; SMT Says: Unsat
; SMT Says: Sat
; SMT Says: Sat
; SMT Says: Unsat
(pop 1)
(push 1)
(assert (and (and (or (exists ((lq_karg$36$nnf_arg$35$$35$k7$35$$35$2$35$$35$k7 Int) (lq_karg$36$nnf_arg$35$$35$k7$35$$35$1$35$$35$k7 Int) (lq_karg$36$nnf_arg$35$$35$k7$35$$35$0$35$$35$k7 Int)) (and (= lq_karg$36$nnf_arg$35$$35$k7$35$$35$0$35$$35$k7 a10) (= lq_karg$36$nnf_arg$35$$35$k7$35$$35$1$35$$35$k7 a0) (= lq_karg$36$nnf_arg$35$$35$k7$35$$35$2$35$$35$k7 a7) (exists ((fix$36$_$35$8$35$$35$12 Unit)) (and (>= a7 0) (= lq_karg$36$nnf_arg$35$$35$k7$35$$35$0$35$$35$k7 a0) (= lq_karg$36$nnf_arg$35$$35$k7$35$$35$1$35$$35$k7 a0) (= lq_karg$36$nnf_arg$35$$35$k7$35$$35$2$35$$35$k7 a7))))) (exists ((lq_karg$36$nnf_arg$35$$35$k7$35$$35$2$35$$35$k7 Int) (lq_karg$36$nnf_arg$35$$35$k7$35$$35$1$35$$35$k7 Int) (lq_karg$36$nnf_arg$35$$35$k7$35$$35$0$35$$35$k7 Int)) (and (= lq_karg$36$nnf_arg$35$$35$k7$35$$35$0$35$$35$k7 a10) (= lq_karg$36$nnf_arg$35$$35$k7$35$$35$1$35$$35$k7 a0) (= lq_karg$36$nnf_arg$35$$35$k7$35$$35$2$35$$35$k7 a7) (exists ((fix$36$_$35$9$35$$35$11 Unit) (a8 Int) (fix$36$_$35$9 Unit)) (and (>= a8 0) (<= a8 a0) (= a8 a0) (>= a8 a0) (>= a8 0) (<= a8 a0) (= a8 a0) (>= a8 a0) (= lq_karg$36$nnf_arg$35$$35$k7$35$$35$0$35$$35$k7 a8) (= lq_karg$36$nnf_arg$35$$35$k7$35$$35$1$35$$35$k7 a0) (= lq_karg$36$nnf_arg$35$$35$k7$35$$35$2$35$$35$k7 a7)))))) (>= a0 0) (<= a7 a0) (>= a7 0) (or (exists ((lq_karg$36$nnf_arg$35$$35$k7$35$$35$2$35$$35$k7 Int) (lq_karg$36$nnf_arg$35$$35$k7$35$$35$1$35$$35$k7 Int) (lq_karg$36$nnf_arg$35$$35$k7$35$$35$0$35$$35$k7 Int)) (and (= lq_karg$36$nnf_arg$35$$35$k7$35$$35$0$35$$35$k7 a10) (= lq_karg$36$nnf_arg$35$$35$k7$35$$35$1$35$$35$k7 a0) (= lq_karg$36$nnf_arg$35$$35$k7$35$$35$2$35$$35$k7 a7) (exists ((fix$36$_$35$8$35$$35$12 Unit)) (and (>= a7 0) (= lq_karg$36$nnf_arg$35$$35$k7$35$$35$0$35$$35$k7 a0) (= lq_karg$36$nnf_arg$35$$35$k7$35$$35$1$35$$35$k7 a0) (= lq_karg$36$nnf_arg$35$$35$k7$35$$35$2$35$$35$k7 a7))))) (exists ((lq_karg$36$nnf_arg$35$$35$k7$35$$35$2$35$$35$k7 Int) (lq_karg$36$nnf_arg$35$$35$k7$35$$35$1$35$$35$k7 Int) (lq_karg$36$nnf_arg$35$$35$k7$35$$35$0$35$$35$k7 Int)) (and (= lq_karg$36$nnf_arg$35$$35$k7$35$$35$0$35$$35$k7 a10) (= lq_karg$36$nnf_arg$35$$35$k7$35$$35$1$35$$35$k7 a0) (= lq_karg$36$nnf_arg$35$$35$k7$35$$35$2$35$$35$k7 a7) (exists ((fix$36$_$35$9$35$$35$11 Unit) (a8 Int) (fix$36$_$35$9 Unit)) (and (>= a8 0) (<= a8 a0) (= a8 a0) (>= a8 a0) (>= a8 0) (<= a8 a0) (= a8 a0) (>= a8 a0) (= lq_karg$36$nnf_arg$35$$35$k7$35$$35$0$35$$35$k7 a8) (= lq_karg$36$nnf_arg$35$$35$k7$35$$35$1$35$$35$k7 a0) (= lq_karg$36$nnf_arg$35$$35$k7$35$$35$2$35$$35$k7 a7))))))) b$36$$35$$35$9 b$36$$35$$35$24))
(push 1)
(assert (not (>= a10 0)))
(check-sat)
(pop 1)
(push 1)
(assert (not (<= a10 a0)))
(check-sat)
(pop 1)
(push 1)
(assert (not (= a10 a0)))
(check-sat)
(pop 1)
(push 1)
(assert (not (>= a10 a0)))
(check-sat)
(pop 1)
; SMT Says: Unsat
; SMT Says: Unsat
; SMT Says: Unsat
; SMT Says: Unsat
(pop 1)
(push 1)
(push 1)
(assert (and (and (>= a6 a0) (= a6 a0) (<= a6 a0) (>= a6 0) (>= a0 0) (>= a6 a0) (= a6 a0) (<= a6 a0) (>= a6 0)) b$36$$35$$35$9))
(push 1)
(assert (not (= a6 a0)))
(check-sat)
(pop 1)
; SMT Says: Unsat
(pop 1)
(push 1)
(assert (and (and (>= a0 0) (<= a7 a0) (>= a7 0)) b$36$$35$$35$39 b$36$$35$$35$9 b$36$$35$$35$24))
(push 1)
(assert (not (<= a7 a0)))
(check-sat)
(pop 1)
; SMT Says: Unsat
(pop 1)
(push 1)
(assert (and (and (>= a0 0) (<= a7 a0) (>= a7 0)) b$36$$35$$35$40 b$36$$35$$35$9 b$36$$35$$35$24))
(push 1)
(assert (not (<= 0 a0)))
(check-sat)
(pop 1)
; SMT Says: Unsat
(pop 1)
(pop 1)
(pop 1)
(exit)
